es_decr_min = int_search([es[1],es[11],es[6],es[4],es[8],es[9],es[7],es[5],es[3],es[12],es[2],es[10],vs[5],vs[7],vs[2],vs[10],vs[11],vs[4],vs[6],vs[9],vs[13],vs[12],vs[8],vs[1],vs[3]], input_order, indomain_min, complete);
nbV = 13;
nbE = 12;
nbT = 10;
adj = [|false,true,true,false,false,false,false,false,false,false,false,false
|false,false,false,false,false,true,false,false,false,false,false,false
|false,false,false,false,false,false,false,false,false,true,false,false
|false,false,false,false,false,false,false,true,true,false,false,false
|true,false,false,false,false,false,false,false,false,false,false,false
|false,false,false,false,false,false,false,false,false,false,true,true
|false,false,false,false,false,false,false,false,false,false,true,false
|false,false,true,false,false,false,false,false,false,false,false,false
|false,true,false,true,false,false,false,false,false,false,false,false
|true,false,false,false,true,false,false,false,false,false,false,false
|false,false,false,true,false,true,true,false,false,false,false,false
|false,false,false,false,false,false,true,false,true,true,false,false
|false,false,false,false,true,false,false,true,false,false,false,true
|];
endnodes = [|false,false,false,false,true,false,false,false,false,true,false,false,false
|true,false,false,false,false,false,false,false,true,false,false,false,false
|true,false,false,false,false,false,false,true,false,false,false,false,false
|false,false,false,false,false,false,false,false,true,false,true,false,false
|false,false,false,false,false,false,false,false,false,true,false,false,true
|false,true,false,false,false,false,false,false,false,false,true,false,false
|false,false,false,false,false,false,false,false,false,false,true,true,false
|false,false,false,true,false,false,false,false,false,false,false,false,true
|false,false,false,true,false,false,false,false,false,false,false,true,false
|false,false,true,false,false,false,false,false,false,false,false,true,false
|false,false,false,false,false,true,true,false,false,false,false,false,false
|false,false,false,false,false,true,false,false,false,false,false,false,true
|];
terminals = {1,2,3,4,5,6,7,8,9,10};
ws = [456253,53159,80399,261583,94927,285685,137599,247216,158775,37738,326097,79207];
cs = [8,5,9,10,3,7,6,10,3,5,7,3];
ds = [0,2,3,3,2,3,2,2,3,2,1,0,0];
